size = 15;
mines_count = 25;
fields = array2d(1..size, 1..size, [-1,-1,-1,-1,-1,-1,1,0,0,0,0,0,0,0,0,-1,-1,-1,-1,-1,-1,2,0,0,0,0,0,1,2,2,-1,-1,-1,-1,-1,-1,2,0,0,0,0,0,1,-1,-1,-1,-1,-1,-1,2,2,1,0,0,0,0,0,1,2,2,-1,-1,-1,-1,1,0,0,0,1,2,2,1,0,0,0,-1,-1,-1,-1,1,1,1,1,1,-1,-1,2,1,1,1,-1,-1,-1,-1,-1,-1,-1,-1,-1,-1,-1,-1,-1,-1,-1,-1,-1,-1,-1,-1,-1,-1,-1,-1,-1,-1,-1,-1,-1,-1,-1,-1,-1,-1,-1,-1,-1,-1,-1,-1,-1,-1,-1,-1,-1,-1,-1,-1,-1,-1,-1,-1,-1,-1,-1,-1,-1,-1,-1,-1,-1,-1,-1,-1,-1,-1,-1,-1,-1,-1,-1,-1,-1,-1,-1,-1,-1,-1,-1,-1,-1,-1,-1,-1,-1,-1,-1,-1,-1,-1,-1,-1,-1,-1,-1,-1,-1,-1,-1,-1,-1,-1,-1,-1,-1,-1,-1,-1,-1,-1,-1,-1,-1,-1,-1,-1,-1,-1,-1,-1,-1,-1,-1,-1,-1,-1,-1,-1,-1,-1,-1,-1,-1,-1,-1,]);
